0 4339.59
2401 4227.63
4802 4137.95
7203 4062.73
9604 3997.21
12005 3940.06
14406 3891.77
16807 3848.92
19208 3812.71
21609 3781.91
24010 3752.65
26411 3728.49
28812 3705.84
31213 3685.06
33614 3666.86
36015 3649.73
38416 3635.77
40817 3623.2
43218 3612.61
45619 3603.45
48020 3594.13
50421 3586.72
52822 3579.56
55223 3573.66
57624 3568.52
60025 3563.83
62426 3560.18
64827 3556.91
67228 3554.52
69629 3552.38
72030 3550.35
74431 3549.05
76832 3548.44
79233 3547.8
81634 3547.37
84035 3547.02
86436 3546.92
88837 3546.86
91238 3546.79
93639 3546.69
96040 3546.65
